c Instancia generada aleatoriamente
p edge 40 196
e 1 5
e 1 6
e 1 11
e 1 13
e 1 14
e 1 19
e 1 24
e 1 34
e 1 35
e 2 9
e 2 10
e 2 26
e 2 27
e 2 29
e 2 33
e 2 35
e 2 39
e 3 6
e 3 12
e 3 18
e 3 20
e 3 22
e 3 23
e 3 24
e 3 28
e 3 32
e 3 33
e 3 37
e 4 5
e 4 6
e 4 13
e 4 17
e 4 19
e 4 22
e 4 23
e 4 26
e 4 31
e 4 35
e 4 39
e 5 7
e 5 9
e 5 13
e 5 15
e 5 25
e 5 26
e 5 29
e 5 33
e 5 36
e 5 37
e 5 39
e 6 8
e 6 12
e 6 14
e 6 16
e 6 25
e 6 26
e 6 27
e 6 31
e 6 32
e 6 34
e 6 36
e 6 38
e 6 39
e 7 9
e 7 12
e 7 15
e 7 16
e 7 30
e 7 38
e 7 40
e 8 10
e 8 12
e 8 14
e 8 18
e 8 26
e 8 33
e 8 34
e 9 11
e 9 23
e 9 24
e 9 26
e 9 32
e 9 34
e 10 14
e 10 28
e 10 33
e 10 34
e 10 36
e 10 38
e 11 21
e 11 23
e 11 25
e 11 26
e 11 28
e 11 33
e 11 37
e 11 40
e 12 15
e 12 19
e 12 28
e 12 31
e 12 34
e 12 39
e 13 14
e 13 16
e 13 29
e 13 31
e 13 35
e 13 38
e 14 15
e 14 30
e 14 34
e 14 39
e 15 17
e 15 21
e 15 22
e 15 25
e 15 33
e 15 34
e 15 38
e 16 20
e 16 24
e 16 26
e 16 27
e 17 19
e 17 28
e 17 30
e 17 31
e 17 33
e 18 24
e 18 26
e 18 29
e 18 30
e 18 35
e 18 37
e 18 39
e 19 22
e 19 23
e 19 26
e 19 32
e 19 34
e 19 36
e 19 37
e 20 23
e 20 24
e 20 28
e 20 29
e 20 30
e 20 32
e 20 36
e 20 37
e 20 39
e 20 40
e 21 23
e 21 25
e 21 27
e 21 28
e 21 29
e 22 31
e 22 34
e 23 33
e 23 34
e 23 35
e 24 27
e 24 28
e 24 29
e 24 31
e 24 35
e 24 39
e 25 29
e 25 38
e 25 39
e 26 30
e 26 31
e 26 33
e 27 28
e 27 29
e 27 38
e 27 39
e 28 35
e 29 33
e 29 34
e 29 40
e 30 34
e 30 35
e 30 37
e 31 36
e 31 37
e 31 39
e 32 36
e 33 35
e 33 37
e 33 39
e 34 38
e 35 36
e 35 38
